Ga1 As1                                 
    1.000000000000000     
     0.0000322799528879    2.8314282343407386    2.8314282748899102
     2.8314281384530124    0.0000322782499916    2.8314282729835663
     2.8314281292739043    2.8314282274090181    0.0000322875295511
   Ga   As
     1     1
Direct
  0.0000001066714675  0.0000001067796318  0.0000001070779619
  0.2499998933285325  0.2499998932203682  0.2499998929220381
 
  0.00000000E+00  0.00000000E+00  0.00000000E+00
  0.00000000E+00  0.00000000E+00  0.00000000E+00
