Ba1 Cd2 P2                              
    1.000000000000000     
     4.4207737418222877   -0.0001445381925190   -0.0000409895553841
    -2.2105120435490018    3.8284299033054037    0.0000409918139478
    -0.0000704855293968    0.0000407103645469    7.5941185180493651
   Ba   Cd   P 
     1     2     2
Direct
  0.0000000001522787  0.0000000000884953 -0.0000000001891076
  0.6666627548619543  0.3333372568579626  0.3695627574136539
  0.3333372454209437  0.6666627435292251  0.6304372427591989
  0.6666646432016505  0.3333353512588855  0.7326700073010382
  0.3333353563631729  0.6666646482654314  0.2673299927152167
 
  0.00000000E+00  0.00000000E+00  0.00000000E+00
  0.00000000E+00  0.00000000E+00  0.00000000E+00
  0.00000000E+00  0.00000000E+00  0.00000000E+00
  0.00000000E+00  0.00000000E+00  0.00000000E+00
  0.00000000E+00  0.00000000E+00  0.00000000E+00
